
  22   10
  10   10   10   10   10   10   10   10   10   10

   0   0   0   0   0   0   0   0   0   0   0   2 2 7 
   7   0   0   0   0   0  10   0   0   0   0   1 3 
   8   0   0   0   0   0   0   0   0   0  10   1 4 
   9   0   0   0   0   0   0   0   0  10   0   1 5 
   2   0   0   0   0  10   0   0   0   0   0   1 6 
   9   0   0   0   0   0   0   0   0   0  10   2 19 8 
   1   0   0   0   0   0   0   0   0   0  10   2 19 9 
  10   0   0   0  10   0   0   0   0   0   0   1 9 
   5   0   0   0   0   0   0   0   0   0  10   1 10 
  10   0   0  10   0   0   0   0   0   0   0   1 11 
   7  10   0   0   0   0   0   0   0   0   0   1 12 
   2   0   0   0   0   0   0   0   0  10   0   1 13 
   1   0   0   0   0   0   0   0  10   0   0   1 14 
   3   0   0   0   0   0  10   0   0   0   0   1 15 
   6   0  10   0   0   0   0   0   0   0   0   1 16 
  10   0   0   0   0  10   0   0   0   0   0   1 17 
   8   0   0   0   0   0   0  10   0   0   0   1 18 
  10   0   0   0   0   0  10   0   0   0   0   1 20 
   1   0   0   0   0   0   0  10   0   0   0   1 20 
   3   0   0   0  10   0   0   0   0   0   0   1 21 
   5   0   0   0   0   0   0   0   0   0  10   1 22
   0   0   0   0   0   0   0   0   0   0   0   0 
